
;this file is automatically generated: Wed Feb 26 14:38:42 CST 2020

;declarations generated

(declare-fun oclExcludes ( Int Int) Bool)
(declare-fun Cardinality ( Int) Int)
(declare-fun type_a5e6a3ee_a3db_4152_819f_50babb81e855_Class23 ( Int) Bool)
(declare-fun oclSelect ( Int Bool) Int)
(declare-fun class23_Class23IntAttr1 ( Int) Int)
(declare-fun obj_000f2a44_4340_4db7_9fb8_e8ab52946d81 ( Int) Int)
(declare-fun Enum0 ( Int) Int)
(declare-fun Enum1 ( Int) Int)
(declare-fun container_ ( Int) Int)
(declare-fun oclIncludes ( Int Int) Bool)
(declare-fun ObjAt ( Int Int) Int)

;formula(s) generated
(assert (forall ((p Int)) (=> ( type_a5e6a3ee_a3db_4152_819f_50babb81e855_Class23 p )  (and (>= ( Enum0 ( obj_000f2a44_4340_4db7_9fb8_e8ab52946d81 p )  )  0) (<= ( Enum0 ( obj_000f2a44_4340_4db7_9fb8_e8ab52946d81 p )  )  3)))))
(assert (! (or (forall ((v Int)) (=> ( type_a5e6a3ee_a3db_4152_819f_50babb81e855_Class23 v )  (not (= ( Enum0 ( obj_000f2a44_4340_4db7_9fb8_e8ab52946d81 v )  )  1) ))) (forall ((v Int)) (=> ( type_a5e6a3ee_a3db_4152_819f_50babb81e855_Class23 v )  (not (= ( class23_Class23IntAttr1 ( obj_000f2a44_4340_4db7_9fb8_e8ab52946d81 v )  )  1) )))):named l0))
(assert (exists ((o Int)) ( type_a5e6a3ee_a3db_4152_819f_50babb81e855_Class23 ( obj_000f2a44_4340_4db7_9fb8_e8ab52946d81 o )  ) ))

 ;end of formula 